\ENCODING=ISO-8859-1
\Problem name: IloCplex

Minimize
 obj: 236 x11 + 302 x12 + 222 x13 + 261 x14 + 414 x15 + 423 x16 + 339 x17
      + 301 x18 + 402 x19 + 313 x110 + 113 x111 + 490 x112 + 127 x113
      + 462 x114 + 221 x21 + 394 x22 + 99 x23 + 116 x24 + 69 x25 + 341 x26
      + 174 x27 + 436 x28 + 435 x29 + 189 x210 + 247 x211 + 280 x212 + 254 x213
      + 84 x214 + 420 x31 + 198 x32 + 158 x33 + 311 x34 + 136 x35 + 131 x36
      + 208 x37 + 120 x38 + 428 x39 + 200 x310 + 361 x311 + 340 x312 + 354 x313
      + 353 x314 + 210 x41 + 160 x42 + 475 x43 + 102 x44 + 452 x45 + 274 x46
      + 143 x47 + 458 x48 + 445 x49 + 343 x410 + 409 x411 + 77 x412 + 123 x413
      + 157 x414 + 440 x51 + 447 x52 + 334 x53 + 161 x54 + 375 x55 + 340 x56
      + 127 x57 + 431 x58 + 481 x59 + 222 x510 + 335 x511 + 155 x512 + 457 x513
      + 195 x514 + 328 x61 + 428 x62 + 130 x63 + 265 x64 + 445 x65 + 203 x66
      + 476 x67 + 379 x68 + 366 x69 + 300 x610 + 436 x611 + 73 x612 + 322 x613
      + 64 x614 + 178 x71 + 403 x72 + 160 x73 + 50 x74 + 184 x75 + 154 x76
      + 485 x77 + 350 x78 + 91 x79 + 75 x710 + 404 x711 + 424 x712 + 389 x713
      + 97 x714 + 328 x81 + 143 x82 + 108 x83 + 355 x84 + 401 x85 + 220 x86
      + 332 x87 + 104 x88 + 267 x89 + 465 x810 + 410 x811 + 306 x812 + 294 x813
      + 436 x814 + 413 x91 + 82 x92 + 439 x93 + 260 x94 + 158 x95 + 121 x96
      + 127 x97 + 403 x98 + 282 x99 + 108 x910 + 452 x911 + 428 x912 + 500 x913
      + 479 x914 + 300 x101 + 292 x102 + 291 x103 + 130 x104 + 330 x105
      + 141 x106 + 334 x107 + 85 x108 + 416 x109 + 483 x1010 + 373 x1011
      + 298 x1012 + 341 x1013 + 408 x1014 + 348 x111 + 388 x112 + 178 x113
      + 406 x114 + 74 x115 + 388 x116 + 402 x117 + 177 x118 + 141 x119
      + 439 x1110 + 271 x1111 + 270 x1112 + 252 x1113 + 334 x1114 + 365 x121
      + 156 x122 + 119 x123 + 451 x124 + 150 x125 + 417 x126 + 233 x127
      + 436 x128 + 121 x129 + 133 x1210 + 67 x1211 + 474 x1212 + 200 x1213
      + 143 x1214 + 323 x131 + 277 x132 + 76 x133 + 391 x134 + 427 x135
      + 184 x136 + 122 x137 + 490 x138 + 301 x139 + 62 x1310 + 246 x1311
      + 461 x1312 + 359 x1313 + 498 x1314 + 470 x141 + 207 x142 + 133 x143
      + 84 x144 + 241 x145 + 266 x146 + 286 x147 + 210 x148 + 162 x149
      + 305 x1410 + 69 x1411 + 275 x1412 + 427 x1413 + 450 x1414 + 303 x1415
      + 105 x1416 + 455 x1417 + 348 x1418
Subject To
 c1:  x11 + x12 + x13 + x14 + x15 + x16 + x17 + x18 + x19 + x110 + x111 + x112
      + x113 + x114 + x21 + x22 + x23 + x24 <= 81
 c2:  x21 + x22 + x23 + x24 + x25 + x26 + x27 + x28 + x29 + x210 + x211 + x212
      + x213 + x214 + x31 + x32 + x33 + x34 <= 61
 c3:  x31 + x32 + x33 + x34 + x35 + x36 + x37 + x38 + x39 + x310 + x311 + x312
      + x313 + x314 + x41 + x42 + x43 + x44 <= 116
 c4:  x41 + x42 + x43 + x44 + x45 + x46 + x47 + x48 + x49 + x410 + x411 + x412
      + x413 + x414 + x51 + x52 + x53 + x54 <= 108
 c5:  x51 + x52 + x53 + x54 + x55 + x56 + x57 + x58 + x59 + x510 + x511 + x512
      + x513 + x514 + x61 + x62 + x63 + x64 <= 101
 c6:  x61 + x62 + x63 + x64 + x65 + x66 + x67 + x68 + x69 + x610 + x611 + x612
      + x613 + x614 + x71 + x72 + x73 + x74 <= 117
 c7:  x71 + x72 + x73 + x74 + x75 + x76 + x77 + x78 + x79 + x710 + x711 + x712
      + x713 + x714 + x81 + x82 + x83 + x84 <= 91
 c8:  x81 + x82 + x83 + x84 + x85 + x86 + x87 + x88 + x89 + x810 + x811 + x812
      + x813 + x814 + x91 + x92 + x93 + x94 <= 63
 c9:  x91 + x92 + x93 + x94 + x95 + x96 + x97 + x98 + x99 + x910 + x911 + x912
      + x913 + x914 + x101 + x102 + x103 + x104 <= 114
 c10: x101 + x102 + x103 + x104 + x105 + x106 + x107 + x108 + x109 + x1010
      + x1011 + x1012 + x1013 + x1014 + x111 + x112 + x113 + x114 <= 67
 c11: x111 + x112 + x113 + x114 + x115 + x116 + x117 + x118 + x119 + x1110
      + x1111 + x1112 + x1113 + x1114 + x121 + x122 + x123 + x124 <= 70
 c12: x121 + x122 + x123 + x124 + x125 + x126 + x127 + x128 + x129 + x1210
      + x1211 + x1212 + x1213 + x1214 + x131 + x132 + x133 + x134 <= 116
 c13: x131 + x132 + x133 + x134 + x135 + x136 + x137 + x138 + x139 + x1310
      + x1311 + x1312 + x1313 + x1314 + x141 + x142 + x143 + x144 <= 107
 c14: x141 + x142 + x143 + x144 + x145 + x146 + x147 + x148 + x149 + x1410
      + x1411 + x1412 + x1413 + x1414 + x1415 + x1416 + x1417 + x1418 <= 909
 c15: x11 + x25 + x39 + x413 + x63 + x77 + x811 + x101 + x115 + x129 + x1313
      + x1417 + x201 + x202 >= 48
 c16: x12 + x26 + x310 + x414 + x64 + x78 + x812 + x102 + x116 + x1210 + x1314
      + x1418 + x203 + x204 >= 59
 c17: x13 + x27 + x311 + x51 + x65 + x79 + x813 + x103 + x117 + x1211 + x141
      + x205 + x206 + x207 >= 106
 c18: x14 + x28 + x312 + x52 + x66 + x710 + x814 + x104 + x118 + x1212 + x142
      + x208 + x209 + x210 >= 96
 c19: x15 + x29 + x313 + x53 + x67 + x711 + x91 + x105 + x119 + x1213 + x143
      + x211 + x212 + x213 >= 54
 c20: x16 + x210 + x314 + x54 + x68 + x712 + x92 + x106 + x1110 + x1214 + x144
      + x214 + x215 + x216 >= 57
 c21: x17 + x211 + x41 + x55 + x69 + x713 + x93 + x107 + x1111 + x131 + x145
      + x217 + x218 + x219 >= 85
 c22: x18 + x212 + x42 + x56 + x610 + x714 + x94 + x108 + x1112 + x132 + x146
      + x220 + x221 + x222 >= 59
 c23: x19 + x213 + x43 + x57 + x611 + x81 + x95 + x109 + x1113 + x133 + x147
      + x223 + x224 + x225 >= 74
 c24: x110 + x214 + x44 + x58 + x612 + x82 + x96 + x1010 + x1114 + x134 + x148
      + x226 + x227 + x228 >= 56
 c25: x111 + x31 + x45 + x59 + x613 + x83 + x97 + x1011 + x121 + x135 + x149
      + x229 + x230 + x231 >= 60
 c26: x112 + x32 + x46 + x510 + x614 + x84 + x98 + x1012 + x122 + x136 + x1410
      + x232 + x233 + x234 >= 72
 c27: x113 + x33 + x47 + x511 + x71 + x85 + x99 + x1013 + x123 + x137 + x1411
      + x235 + x236 + x237 >= 87
 c28: x114 + x34 + x48 + x512 + x72 + x86 + x910 + x1014 + x124 + x138 + x1412
      + x238 + x239 + x240 >= 95
 c29: x21 + x35 + x49 + x513 + x73 + x87 + x911 + x111 + x125 + x139 + x1413
      + x241 + x242 + x243 >= 69
 c30: x22 + x36 + x410 + x514 + x74 + x88 + x912 + x112 + x126 + x1310 + x1414
      + x244 + x245 + x246 >= 65
 c31: x23 + x37 + x411 + x61 + x75 + x89 + x913 + x113 + x127 + x1311 + x1415
      + x247 + x248 + x249 >= 55
 c32: x24 + x38 + x412 + x62 + x76 + x810 + x914 + x114 + x128 + x1312 + x1416
      + x250 + x251 + x252 >= 924
Bounds
      x11 >= 0
      x12 >= 0
      x13 >= 0
      x14 >= 0
      x15 >= 0
      x16 >= 0
      x17 >= 0
      x18 >= 0
      x19 >= 0
      x110 >= 0
      x111 >= 0
      x112 >= 0
      x113 >= 0
      x114 >= 0
      x21 >= 0
      x22 >= 0
      x23 >= 0
      x24 >= 0
      x25 >= 0
      x26 >= 0
      x27 >= 0
      x28 >= 0
      x29 >= 0
      x210 >= 0
      x211 >= 0
      x212 >= 0
      x213 >= 0
      x214 >= 0
      x31 >= 0
      x32 >= 0
      x33 >= 0
      x34 >= 0
      x35 >= 0
      x36 >= 0
      x37 >= 0
      x38 >= 0
      x39 >= 0
      x310 >= 0
      x311 >= 0
      x312 >= 0
      x313 >= 0
      x314 >= 0
      x41 >= 0
      x42 >= 0
      x43 >= 0
      x44 >= 0
      x45 >= 0
      x46 >= 0
      x47 >= 0
      x48 >= 0
      x49 >= 0
      x410 >= 0
      x411 >= 0
      x412 >= 0
      x413 >= 0
      x414 >= 0
      x51 >= 0
      x52 >= 0
      x53 >= 0
      x54 >= 0
      x55 >= 0
      x56 >= 0
      x57 >= 0
      x58 >= 0
      x59 >= 0
      x510 >= 0
      x511 >= 0
      x512 >= 0
      x513 >= 0
      x514 >= 0
      x61 >= 0
      x62 >= 0
      x63 >= 0
      x64 >= 0
      x65 >= 0
      x66 >= 0
      x67 >= 0
      x68 >= 0
      x69 >= 0
      x610 >= 0
      x611 >= 0
      x612 >= 0
      x613 >= 0
      x614 >= 0
      x71 >= 0
      x72 >= 0
      x73 >= 0
      x74 >= 0
      x75 >= 0
      x76 >= 0
      x77 >= 0
      x78 >= 0
      x79 >= 0
      x710 >= 0
      x711 >= 0
      x712 >= 0
      x713 >= 0
      x714 >= 0
      x81 >= 0
      x82 >= 0
      x83 >= 0
      x84 >= 0
      x85 >= 0
      x86 >= 0
      x87 >= 0
      x88 >= 0
      x89 >= 0
      x810 >= 0
      x811 >= 0
      x812 >= 0
      x813 >= 0
      x814 >= 0
      x91 >= 0
      x92 >= 0
      x93 >= 0
      x94 >= 0
      x95 >= 0
      x96 >= 0
      x97 >= 0
      x98 >= 0
      x99 >= 0
      x910 >= 0
      x911 >= 0
      x912 >= 0
      x913 >= 0
      x914 >= 0
      x101 >= 0
      x102 >= 0
      x103 >= 0
      x104 >= 0
      x105 >= 0
      x106 >= 0
      x107 >= 0
      x108 >= 0
      x109 >= 0
      x1010 >= 0
      x1011 >= 0
      x1012 >= 0
      x1013 >= 0
      x1014 >= 0
      x111 >= 0
      x112 >= 0
      x113 >= 0
      x114 >= 0
      x115 >= 0
      x116 >= 0
      x117 >= 0
      x118 >= 0
      x119 >= 0
      x1110 >= 0
      x1111 >= 0
      x1112 >= 0
      x1113 >= 0
      x1114 >= 0
      x121 >= 0
      x122 >= 0
      x123 >= 0
      x124 >= 0
      x125 >= 0
      x126 >= 0
      x127 >= 0
      x128 >= 0
      x129 >= 0
      x1210 >= 0
      x1211 >= 0
      x1212 >= 0
      x1213 >= 0
      x1214 >= 0
      x131 >= 0
      x132 >= 0
      x133 >= 0
      x134 >= 0
      x135 >= 0
      x136 >= 0
      x137 >= 0
      x138 >= 0
      x139 >= 0
      x1310 >= 0
      x1311 >= 0
      x1312 >= 0
      x1313 >= 0
      x1314 >= 0
      x141 >= 0
      x142 >= 0
      x143 >= 0
      x144 >= 0
      x145 >= 0
      x146 >= 0
      x147 >= 0
      x148 >= 0
      x149 >= 0
      x1410 >= 0
      x1411 >= 0
      x1412 >= 0
      x1413 >= 0
      x1414 >= 0
      x1415 >= 0
      x1416 >= 0
      x1417 >= 0
      x1418 >= 0
      x201 >= 0
      x202 >= 0
      x203 >= 0
      x204 >= 0
      x205 >= 0
      x206 >= 0
      x207 >= 0
      x208 >= 0
      x209 >= 0
      x210 >= 0
      x211 >= 0
      x212 >= 0
      x213 >= 0
      x214 >= 0
      x215 >= 0
      x216 >= 0
      x217 >= 0
      x218 >= 0
      x219 >= 0
      x220 >= 0
      x221 >= 0
      x222 >= 0
      x223 >= 0
      x224 >= 0
      x225 >= 0
      x226 >= 0
      x227 >= 0
      x228 >= 0
      x229 >= 0
      x230 >= 0
      x231 >= 0
      x232 >= 0
      x233 >= 0
      x234 >= 0
      x235 >= 0
      x236 >= 0
      x237 >= 0
      x238 >= 0
      x239 >= 0
      x240 >= 0
      x241 >= 0
      x242 >= 0
      x243 >= 0
      x244 >= 0
      x245 >= 0
      x246 >= 0
      x247 >= 0
      x248 >= 0
      x249 >= 0
      x250 >= 0
      x251 >= 0
      x252 >= 0
Generals
 x11  x12  x13  x14  x15  x16  x17  x18  x19  x110  x111  x112  x113  x114 
 x21  x22  x23  x24  x25  x26  x27  x28  x29  x210  x211  x212  x213  x214 
 x31  x32  x33  x34  x35  x36  x37  x38  x39  x310  x311  x312  x313  x314 
 x41  x42  x43  x44  x45  x46  x47  x48  x49  x410  x411  x412  x413  x414 
 x51  x52  x53  x54  x55  x56  x57  x58  x59  x510  x511  x512  x513  x514 
 x61  x62  x63  x64  x65  x66  x67  x68  x69  x610  x611  x612  x613  x614 
 x71  x72  x73  x74  x75  x76  x77  x78  x79  x710  x711  x712  x713  x714 
 x81  x82  x83  x84  x85  x86  x87  x88  x89  x810  x811  x812  x813  x814 
 x91  x92  x93  x94  x95  x96  x97  x98  x99  x910  x911  x912  x913  x914 
 x101  x102  x103  x104  x105  x106  x107  x108  x109  x1010  x1011  x1012 
 x1013  x1014  x111  x112  x113  x114  x115  x116  x117  x118  x119  x1110 
 x1111  x1112  x1113  x1114  x121  x122  x123  x124  x125  x126  x127  x128 
 x129  x1210  x1211  x1212  x1213  x1214  x131  x132  x133  x134  x135  x136 
 x137  x138  x139  x1310  x1311  x1312  x1313  x1314  x141  x142  x143  x144 
 x145  x146  x147  x148  x149  x1410  x1411  x1412  x1413  x1414  x1415  x1416 
 x1417  x1418  x201  x202  x203  x204  x205  x206  x207  x208  x209  x210 
 x211  x212  x213  x214  x215  x216  x217  x218  x219  x220  x221  x222  x223 
 x224  x225  x226  x227  x228  x229  x230  x231  x232  x233  x234  x235  x236 
 x237  x238  x239  x240  x241  x242  x243  x244  x245  x246  x247  x248  x249 
 x250  x251  x252 
End
